p cnf 7 9
c 1 string_LWS_MODEL_NAME_EQ_lws
c 2 string_LWS_OTA_SERVER_BASE_URL_EQ_/esp32-ota
c 3 string_LWS_OTA_SERVER_FQDN_EQ_EMPTY
c 4 string_LWS_OTA_SERVER_UPLOAD_PATH_EQ_/var/www/libwebsockets.org
c 5 string_LWS_OTA_SERVER_UPLOAD_USER_EQ_root
c 6 boolean_LWS_IS_FACTORY_APPLICATION
c 7 missFeature
2 0
3 -7 0
7 -3 0
4 -7 0
7 -4 0
5 -7 0
7 -5 0
6 -7 0
7 -6 0